Route #1: 36 35 11 18
Route #2: 5 3 4 9 7 8 10 6 71 12 16 17 13 1 15 2 19 62 63 59 58 61 60 34 31
Route #3: 20 29 30 21 22 28 27 42 44 46 43 53 45 52 48 47 50 51 70 49 25 24 26 23
Route #4: 33 14 64 65 66 67 69 37 38 40 68 39 57 56 41 55 54 32
Cost 242
Time 0.096703
